solution status: optimal solution found
objective value:                                    0
shell_i_$_23                                        1 	(obj:0)
shell_j_$_6                                         1 	(obj:0)
shell_i_$_25                                        1 	(obj:0)
shell_i_$_24                                        1 	(obj:0)
shell_i_$_7                                         1 	(obj:0)
shell_i_$_38                                        1 	(obj:0)
shell_j_$_18                                        1 	(obj:0)
shell_j_$_11                                        1 	(obj:0)
shell_j_$_34                                        1 	(obj:0)
shell_j_$_3                                         1 	(obj:0)
shell_j_$_36                                        1 	(obj:0)
shell_i_$_26                                        1 	(obj:0)
shell_j_$_16                                        1 	(obj:0)
shell_j_$_33                                        1 	(obj:0)
shell_j_$_29                                        1 	(obj:0)
shell_i_$_17                                        1 	(obj:0)
shell_j_$_19                                        1 	(obj:0)
shell_j_$_30                                        1 	(obj:0)
shell_j_$_37                                        1 	(obj:0)
shell_i_$_39                                        1 	(obj:0)
shell_i_$_8                                         1 	(obj:0)
shell_j_$_5                                         1 	(obj:0)
shell_i_$_9                                         1 	(obj:0)
shell_j_$_13                                        1 	(obj:0)
shell_j_$_31                                        1 	(obj:0)
shell_i_$_28                                        1 	(obj:0)
shell_j_$_32                                        1 	(obj:0)
shell_j_$_14                                        1 	(obj:0)
shell_j_$_35                                        1 	(obj:0)
shell_i_$_22                                        1 	(obj:0)
shell_j_$_2                                         1 	(obj:0)
shell_j_$_10                                        1 	(obj:0)
shell_j_$_15                                        1 	(obj:0)
shell_i_$_21                                        1 	(obj:0)
shell_i_$_27                                        1 	(obj:0)
shell_j_$_4                                         1 	(obj:0)
shell_j_$_12                                        1 	(obj:0)
shell_j_$_20                                        1 	(obj:0)
$_17_y                                             11 	(obj:0)
$_17_z                                             25 	(obj:0)
$_18_x                                              2 	(obj:0)
$_18_y                                             12 	(obj:0)
$_19_x                                              9 	(obj:0)
$_19_y                                             12 	(obj:0)
$_19_z                                             23 	(obj:0)
$_18_z                                             24 	(obj:0)
$_25_z                                             20 	(obj:0)
$_30_x                                             10 	(obj:0)
$_30_y                                             12 	(obj:0)
$_30_z                                             24 	(obj:0)
$_23_y                                              9 	(obj:0)
$_11_x                                             10 	(obj:0)
$_37_x                                             12 	(obj:0)
$_37_y                                             12 	(obj:0)
$_37_z                                             17 	(obj:0)
$_11_y                                             12 	(obj:0)
$_11_z                                             23 	(obj:0)
$_39_x                                             12 	(obj:0)
$_39_y                                              6 	(obj:0)
$_39_z                                             17 	(obj:0)
$_6_x                                               9 	(obj:0)
$_24_x                                             12 	(obj:0)
$_8_x                                              12 	(obj:0)
$_8_y                                               5 	(obj:0)
$_8_z                                              16 	(obj:0)
$_34_x                                             10 	(obj:0)
$_34_y                                             12 	(obj:0)
$_5_x                                              10 	(obj:0)
$_5_y                                              12 	(obj:0)
$_5_z                                              21 	(obj:0)
$_34_z                                             20 	(obj:0)
$_24_y                                              8 	(obj:0)
$_9_x                                              12 	(obj:0)
$_9_y                                               4 	(obj:0)
$_9_z                                              16 	(obj:0)
$_24_z                                             20 	(obj:0)
$_3_x                                              11 	(obj:0)
$_13_x                                             11 	(obj:0)
$_13_y                                             12 	(obj:0)
$_13_z                                             21 	(obj:0)
$_3_y                                              12 	(obj:0)
$_3_z                                              23 	(obj:0)
$_31_x                                             12 	(obj:0)
$_31_y                                             12 	(obj:0)
$_31_z                                             23 	(obj:0)
$_6_y                                              12 	(obj:0)
$_6_z                                              20 	(obj:0)
$_28_x                                             12 	(obj:0)
$_28_y                                              7 	(obj:0)
$_28_z                                             17 	(obj:0)
$_36_x                                             11 	(obj:0)
$_36_y                                             12 	(obj:0)
$_32_x                                             10 	(obj:0)
$_32_y                                             12 	(obj:0)
$_32_z                                             22 	(obj:0)
$_36_z                                             18 	(obj:0)
$_7_x                                              12 	(obj:0)
$_14_x                                             11 	(obj:0)
$_14_y                                             12 	(obj:0)
$_14_z                                             20 	(obj:0)
$_7_y                                               6 	(obj:0)
$_26_x                                             12 	(obj:0)
$_35_x                                             11 	(obj:0)
$_35_y                                             12 	(obj:0)
$_35_z                                             19 	(obj:0)
$_26_y                                              7 	(obj:0)
$_26_z                                             19 	(obj:0)
$_22_x                                             12 	(obj:0)
$_22_y                                             10 	(obj:0)
$_22_z                                             20 	(obj:0)
$_7_z                                              16 	(obj:0)
$_23_z                                             20 	(obj:0)
$_2_x                                              11 	(obj:0)
$_2_y                                              12 	(obj:0)
$_2_z                                              24 	(obj:0)
$_16_x                                             12 	(obj:0)
$_16_y                                             12 	(obj:0)
$_10_x                                             12 	(obj:0)
$_10_y                                             12 	(obj:0)
$_10_z                                             24 	(obj:0)
$_16_z                                             18 	(obj:0)
$_23_x                                             12 	(obj:0)
$_15_x                                             12 	(obj:0)
$_15_y                                             12 	(obj:0)
$_15_z                                             19 	(obj:0)
$_38_x                                             12 	(obj:0)
$_33_x                                             12 	(obj:0)
$_21_x                                             12 	(obj:0)
$_21_y                                             11 	(obj:0)
$_21_z                                             20 	(obj:0)
$_33_y                                             12 	(obj:0)
$_33_z                                             21 	(obj:0)
$_27_x                                             12 	(obj:0)
$_27_y                                              7 	(obj:0)
$_27_z                                             18 	(obj:0)
$_38_y                                             11 	(obj:0)
$_38_z                                             17 	(obj:0)
$_4_x                                              11 	(obj:0)
$_4_y                                              12 	(obj:0)
$_4_z                                              22 	(obj:0)
$_29_x                                             12 	(obj:0)
$_29_y                                             12 	(obj:0)
$_12_x                                             12 	(obj:0)
$_12_y                                             12 	(obj:0)
$_12_z                                             22 	(obj:0)
$_29_z                                             25 	(obj:0)
$_25_x                                             12 	(obj:0)
$_20_x                                             12 	(obj:0)
$_20_y                                             12 	(obj:0)
$_20_z                                             20 	(obj:0)
$_25_y                                              7 	(obj:0)
$_17_x                                             12 	(obj:0)
